
%    +-----------+
% 8  | | | | | | |
% 7  | | |2| |6| |
% 6  | | | | | | |
% 5  | | | | | | |
% 4  | | | | | | |
% 3  | |1|1| | | |
% 2  | |1|1| | |5|
% 1  | |3| |4| | |
%    +-----------+
n=6;
m=8;
h=2;
%maxT=45;
boxNumber=6;
boxSideLen = [2, 1, 1, 1, 1, 1];
boxStartX  = [2, 3, 2, 4, 6, 5];
boxStartY  = [2, 7, 1, 1, 2, 7];
